Maximize
  13 x0 - 27 x1 - 12 x2 - 17 x3 + 25 x4 - 33 x5 + 16 x6 - 11 x7 + 31 x8
   + 36 x9 + 0 x10 + 0 x11 + 0 x12 - 17 x13 - 11 x14 + 0 x15 + 35 x16
   - 6 x17 - 12 x18 - 20 x19 - 12 x20 + 27 x21 - 29 x22 + 0 x23 + 20 x24
   + 7 x25 + 6 x26 + 16 x27 + 16 x28 - 34 x29 + 33 x30 + 29 x31 + 0 x32
   + 11 x33 - 29 x34 - 43 x35 - 38 x36 + 0 x37 - 34 x38 + 0 x39 + [
   - 36 x0 ^2 + 48 x0 * x1 + 46 x0 * x2 + 96 x0 * x4 + 32 x0 * x8
   - 20 x0 * x9 - 52 x0 * x10 - 64 x0 * x11 + 4 x0 * x12 + 78 x0 * x14
   - 50 x0 * x15 - 28 x0 * x16 + 94 x0 * x17 - 38 x0 * x18 - 98 x0 * x19
   + 46 x0 * x20 - 14 x0 * x21 - 26 x0 * x22 + 22 x0 * x23 + 72 x0 * x24
   + 52 x0 * x25 - 42 x0 * x26 + 82 x0 * x28 + 88 x0 * x29 - 26 x0 * x30
   - 52 x0 * x31 + 26 x0 * x32 - 22 x0 * x35 + 90 x0 * x36 - 40 x0 * x37
   - 98 x0 * x38 - 16 x0 * x39 - 42 x1 ^2 - 44 x1 * x2 + 88 x1 * x3
   - 52 x1 * x4 + 52 x1 * x6 - 76 x1 * x7 - 64 x1 * x9 - 48 x1 * x10
   + 78 x1 * x11 - 78 x1 * x12 - 28 x1 * x13 + 70 x1 * x14 + 80 x1 * x16
   + 62 x1 * x17 + 40 x1 * x19 + 22 x1 * x21 - 80 x1 * x22 - 16 x1 * x23
   - 2 x1 * x24 + 28 x1 * x25 + 14 x1 * x26 + 10 x1 * x27 - 50 x1 * x28
   - 76 x1 * x29 - 50 x1 * x30 + 88 x1 * x31 - 54 x1 * x33 - 90 x1 * x34
   - 68 x1 * x36 - 70 x1 * x39 - 6 x2 ^2 - 76 x2 * x3 - 14 x2 * x4
   - 80 x2 * x5 - 18 x2 * x6 + 64 x2 * x8 - 38 x2 * x9 - 82 x2 * x11
   - 30 x2 * x12 + 34 x2 * x13 + 86 x2 * x14 - 92 x2 * x15 - 50 x2 * x16
   + 44 x2 * x17 - 24 x2 * x18 + 70 x2 * x19 + 70 x2 * x20 + 52 x2 * x21
   + 86 x2 * x22 - 16 x2 * x23 - 62 x2 * x24 + 66 x2 * x26 + 30 x2 * x28
   + 16 x2 * x29 - 4 x2 * x30 + 24 x2 * x32 - 68 x2 * x33 - 4 x2 * x34
   + 26 x2 * x36 + 70 x2 * x37 - 10 x2 * x38 + 6 x2 * x39 + 22 x3 ^2
   - 88 x3 * x4 - 10 x3 * x5 - 16 x3 * x6 - 30 x3 * x7 - 60 x3 * x8
   - 74 x3 * x9 - 62 x3 * x10 - 58 x3 * x11 - 70 x3 * x12 - 98 x3 * x13
   - 52 x3 * x14 + 60 x3 * x15 + 38 x3 * x16 - 98 x3 * x18 + 82 x3 * x19
   + 76 x3 * x20 + 32 x3 * x22 - 12 x3 * x23 - 2 x3 * x24 + 14 x3 * x25
   + 20 x3 * x26 - 58 x3 * x27 + 64 x3 * x28 + 4 x3 * x29 + 30 x3 * x30
   + 40 x3 * x32 - 30 x3 * x33 - 68 x3 * x34 + 22 x3 * x35 - 8 x3 * x36
   - 26 x3 * x38 - 40 x3 * x39 - 43 x4 ^2 + 90 x4 * x6 - 12 x4 * x7
   - 24 x4 * x8 + 24 x4 * x11 + 90 x4 * x14 + 74 x4 * x15 + 28 x4 * x16
   + 30 x4 * x17 + 80 x4 * x18 - 34 x4 * x19 - 94 x4 * x21 + 76 x4 * x22
   + 82 x4 * x23 - 54 x4 * x24 - 34 x4 * x25 - 26 x4 * x26 - 30 x4 * x27
   + 74 x4 * x29 - 40 x4 * x30 - 2 x4 * x35 + 96 x4 * x36 - 28 x4 * x37
   - 90 x4 * x38 + 70 x4 * x39 + 38 x5 ^2 - 84 x5 * x9 + 76 x5 * x13
   + 44 x5 * x14 - 70 x5 * x15 + 6 x5 * x16 - 90 x5 * x17 - 34 x5 * x19
   - 94 x5 * x20 + 22 x5 * x21 - 34 x5 * x22 - 56 x5 * x24 + 32 x5 * x25
   + 84 x5 * x26 - 4 x5 * x27 - 48 x5 * x28 - 86 x5 * x29 + 16 x5 * x30
   - 70 x5 * x31 + 66 x5 * x32 - 2 x5 * x33 + 90 x5 * x34 - 44 x5 * x36
   - 18 x5 * x37 - 96 x5 * x38 - 34 x6 ^2 + 54 x6 * x7 - 22 x6 * x8
   + 68 x6 * x9 - 44 x6 * x11 - 82 x6 * x12 + 82 x6 * x14 + 20 x6 * x16
   + 20 x6 * x18 - 28 x6 * x19 - 66 x6 * x20 + 68 x6 * x21 - 6 x6 * x22
   + 34 x6 * x23 - 42 x6 * x25 - 96 x6 * x26 + 88 x6 * x27 + 48 x6 * x28
   - 20 x6 * x29 - 40 x6 * x30 + 44 x6 * x31 - 56 x6 * x32 + 46 x6 * x33
   - 18 x6 * x34 + 78 x6 * x37 - 74 x6 * x38 + 3 x7 ^2 - 6 x7 * x9
   - 36 x7 * x10 + 58 x7 * x11 + 20 x7 * x13 - 58 x7 * x15 + 68 x7 * x18
   - 62 x7 * x19 - 74 x7 * x20 - 98 x7 * x21 + 22 x7 * x22 + 24 x7 * x23
   + 16 x7 * x24 + 88 x7 * x25 - 88 x7 * x26 - 54 x7 * x27 + 22 x7 * x30
   - 4 x7 * x31 + 98 x7 * x32 + 18 x7 * x33 + 76 x7 * x35 - 20 x7 * x36
   - 74 x7 * x37 + 50 x7 * x38 + 82 x7 * x39 + 8 x8 ^2 - 2 x8 * x9
   - 80 x8 * x10 + 36 x8 * x11 - 42 x8 * x14 + 56 x8 * x16 + 2 x8 * x18
   - 28 x8 * x19 + 18 x8 * x20 + 88 x8 * x21 - 34 x8 * x22 - 12 x8 * x23
   - 40 x8 * x25 + 76 x8 * x26 - 76 x8 * x27 - 48 x8 * x28 + 10 x8 * x29
   + 44 x8 * x30 - 94 x8 * x31 + 94 x8 * x32 - 10 x8 * x33 + 34 x8 * x34
   + 96 x8 * x35 + 80 x8 * x37 + 76 x8 * x38 + 12 x8 * x39 + 43 x9 ^2
   - 32 x9 * x10 + 12 x9 * x11 - 26 x9 * x12 + 4 x9 * x13 - 62 x9 * x14
   - 2 x9 * x15 + 32 x9 * x18 - 14 x9 * x19 + 58 x9 * x21 - 78 x9 * x22
   + 98 x9 * x23 + 72 x9 * x24 - 74 x9 * x25 - 28 x9 * x26 + 4 x9 * x27
   - 80 x9 * x29 + 30 x9 * x30 + 90 x9 * x31 + 98 x9 * x32 + 80 x9 * x33
   + 24 x9 * x35 - 32 x9 * x36 - 16 x9 * x37 - 20 x9 * x38 - 40 x9 * x39
   + 45 x10 ^2 + 98 x10 * x12 + 38 x10 * x14 + 32 x10 * x15 - 68 x10 * x16
   - 12 x10 * x17 + 80 x10 * x18 - 22 x10 * x19 + 60 x10 * x20
   - 94 x10 * x21 - 34 x10 * x23 - 34 x10 * x24 - 86 x10 * x25
   + 54 x10 * x26 + 70 x10 * x27 - 8 x10 * x28 - 76 x10 * x30
   - 10 x10 * x31 - 32 x10 * x32 + 8 x10 * x33 + 90 x10 * x34
   + 70 x10 * x35 - 6 x10 * x36 - 68 x10 * x37 + 42 x10 * x38
   - 32 x10 * x39 + 42 x11 ^2 - 50 x11 * x13 + 14 x11 * x14 - 70 x11 * x15
   + 80 x11 * x16 - 80 x11 * x17 + 74 x11 * x18 - 86 x11 * x19
   - 86 x11 * x21 + 52 x11 * x22 + 68 x11 * x23 - 34 x11 * x24
   + 12 x11 * x26 - 34 x11 * x27 - 54 x11 * x29 - 12 x11 * x31
   - 80 x11 * x32 - 90 x11 * x33 - 84 x11 * x35 - 98 x11 * x37
   - 46 x11 * x38 - 84 x11 * x39 + 28 x12 ^2 - 38 x12 * x13 - 60 x12 * x15
   + 64 x12 * x17 + 82 x12 * x19 - 6 x12 * x20 + 74 x12 * x21
   + 14 x12 * x23 - 38 x12 * x25 + 28 x12 * x26 - 26 x12 * x27
   - 84 x12 * x28 + 44 x12 * x29 + 66 x12 * x30 - 32 x12 * x31
   - 38 x12 * x32 - 66 x12 * x33 + 16 x12 * x34 + 12 x12 * x35
   + 30 x12 * x36 - 20 x12 * x37 + 20 x12 * x38 - 9 x13 ^2 + 54 x13 * x14
   - 64 x13 * x16 - 78 x13 * x17 - 66 x13 * x19 - 70 x13 * x20
   - 52 x13 * x21 + 40 x13 * x23 - 6 x13 * x24 + 52 x13 * x25
   - 44 x13 * x29 + 72 x13 * x30 - 70 x13 * x31 + 10 x13 * x32
   - 12 x13 * x33 + 62 x13 * x34 - 20 x13 * x35 - 48 x13 * x37
   + 42 x13 * x38 - 14 x13 * x39 - 42 x14 ^2 - 34 x14 * x15 - 42 x14 * x17
   - 70 x14 * x19 - 38 x14 * x20 + 30 x14 * x21 - 42 x14 * x23
   + 88 x14 * x24 + 38 x14 * x26 + 38 x14 * x27 - 64 x14 * x28
   - 96 x14 * x29 - 42 x14 * x30 + 98 x14 * x31 + 88 x14 * x32
   + 16 x14 * x33 + 18 x14 * x34 - 70 x14 * x35 + 2 x14 * x36
   - 74 x14 * x37 + 6 x14 * x38 + 22 x14 * x39 - 13 x15 ^2 + 68 x15 * x16
   + 26 x15 * x17 + 78 x15 * x18 - 20 x15 * x19 + 10 x15 * x20
   - 82 x15 * x22 - 98 x15 * x24 - 20 x15 * x25 + 72 x15 * x26
   - 42 x15 * x27 + 50 x15 * x29 - 86 x15 * x30 - 60 x15 * x31
   - 66 x15 * x32 + 78 x15 * x33 - 90 x15 * x34 + 76 x15 * x35
   - 60 x15 * x36 - 66 x15 * x37 + 74 x15 * x38 - 30 x15 * x39 - 33 x16 ^2
   - 12 x16 * x17 + 12 x16 * x18 - 28 x16 * x20 + 28 x16 * x22
   + 20 x16 * x24 + 76 x16 * x26 + 20 x16 * x27 + 88 x16 * x28
   - 16 x16 * x29 + 14 x16 * x30 - 26 x16 * x31 + 96 x16 * x32
   - 40 x16 * x33 + 56 x16 * x34 + 14 x16 * x35 - 42 x16 * x37
   + 66 x16 * x39 - 12 x17 ^2 - 90 x17 * x18 - 8 x17 * x19 - 98 x17 * x20
   - 56 x17 * x22 - 70 x17 * x25 - 64 x17 * x26 - 4 x17 * x29
   - 94 x17 * x31 + 52 x17 * x34 + 88 x17 * x35 + 36 x17 * x37
   - 94 x17 * x38 + 36 x17 * x39 + 30 x18 ^2 - 90 x18 * x19 - 2 x18 * x20
   - 16 x18 * x21 - 94 x18 * x22 + 54 x18 * x23 + 56 x18 * x24
   - 78 x18 * x25 + 12 x18 * x26 - 42 x18 * x28 - 98 x18 * x29
   + 34 x18 * x30 + 98 x18 * x31 + 4 x18 * x32 - 68 x18 * x34
   + 70 x18 * x35 - 64 x18 * x36 + 88 x18 * x38 - 60 x18 * x39 + 42 x19 ^2
   - 22 x19 * x20 + 34 x19 * x21 - 22 x19 * x22 + 2 x19 * x23
   - 16 x19 * x24 - 24 x19 * x25 - 8 x19 * x26 + 76 x19 * x27
   - 24 x19 * x29 - 34 x19 * x32 - 20 x19 * x33 + 46 x19 * x35
   + 90 x19 * x36 - 6 x19 * x37 + 98 x19 * x38 - 32 x19 * x39
   - 78 x20 * x21 + 74 x20 * x23 + 82 x20 * x25 - 14 x20 * x26
   + 68 x20 * x27 + 56 x20 * x28 + 80 x20 * x29 + 78 x20 * x30
   + 38 x20 * x31 + 88 x20 * x33 - 44 x20 * x35 - 34 x20 * x36
   - 52 x20 * x37 + 24 x20 * x38 + 64 x20 * x39 - 7 x21 ^2 + 10 x21 * x22
   - 36 x21 * x23 + 16 x21 * x24 - 50 x21 * x25 - 46 x21 * x27
   + 38 x21 * x28 + 52 x21 * x30 + 26 x21 * x32 + 60 x21 * x33
   - 34 x21 * x35 + 8 x21 * x36 + 74 x21 * x37 + 96 x21 * x38 - 17 x22 ^2
   + 80 x22 * x23 - 12 x22 * x24 + 92 x22 * x25 - 82 x22 * x27
   - 26 x22 * x28 - 72 x22 * x29 - 76 x22 * x30 + 32 x22 * x31
   + 90 x22 * x32 - 42 x22 * x33 - 88 x22 * x34 + 60 x22 * x36
   - 18 x22 * x39 - 4 x23 ^2 - 28 x23 * x25 + 80 x23 * x26 + 2 x23 * x27
   - 16 x23 * x28 - 60 x23 * x29 - 98 x23 * x30 + 64 x23 * x31
   + 4 x23 * x32 - 54 x23 * x33 - 56 x23 * x34 + 54 x23 * x35
   + 18 x23 * x36 - 36 x23 * x38 + 56 x23 * x39 + 19 x24 ^2 + 76 x24 * x25
   - 32 x24 * x26 + 56 x24 * x27 + 38 x24 * x28 - 12 x24 * x29
   + 20 x24 * x30 + 44 x24 * x32 - 4 x24 * x33 - 26 x24 * x35
   - 94 x24 * x36 - 54 x24 * x38 - 8 x24 * x39 + 13 x25 ^2 + 88 x25 * x26
   - 52 x25 * x27 - 42 x25 * x28 - 12 x25 * x29 - 18 x25 * x30
   - 4 x25 * x31 + 78 x25 * x32 + 4 x25 * x33 - 34 x25 * x34 - 96 x25 * x35
   + 46 x25 * x36 + 36 x25 * x38 + 62 x25 * x39 + 42 x26 ^2 - 12 x26 * x27
   - 22 x26 * x28 + 42 x26 * x29 - 78 x26 * x30 - 16 x26 * x32
   + 54 x26 * x33 - 76 x26 * x36 - 14 x26 * x37 + 86 x26 * x38
   + 70 x26 * x39 - 8 x27 ^2 - 32 x27 * x28 + 20 x27 * x29 + 74 x27 * x31
   - 24 x27 * x32 + 18 x27 * x33 + 64 x27 * x34 - 46 x27 * x36
   - 30 x27 * x38 - 22 x27 * x39 - 48 x28 ^2 - 88 x28 * x29 + 68 x28 * x31
   - 34 x28 * x32 + 50 x28 * x33 - 56 x28 * x34 + 24 x28 * x35
   + 80 x28 * x36 - 86 x28 * x37 - 18 x28 * x39 - 26 x29 ^2 - 68 x29 * x30
   + 88 x29 * x34 + 58 x29 * x35 + 28 x29 * x36 + 74 x29 * x37
   - 12 x29 * x38 + 26 x29 * x39 + 43 x30 ^2 - 92 x30 * x31 + 90 x30 * x32
   + 12 x30 * x33 - 60 x30 * x35 + 82 x30 * x38 - 64 x30 * x39 + 15 x31 ^2
   + 76 x31 * x32 - 10 x31 * x33 + 8 x31 * x36 - 44 x31 * x37
   - 94 x31 * x38 + 80 x31 * x39 - 15 x32 ^2 - 96 x32 * x33 + 58 x32 * x34
   - 72 x32 * x35 + 64 x32 * x36 - 62 x32 * x37 + 18 x32 * x38
   + 12 x32 * x39 - 92 x33 * x34 + 80 x33 * x35 + 66 x33 * x36
   - 40 x33 * x37 + 6 x33 * x38 + 20 x34 * x35 + 20 x34 * x37
   + 84 x34 * x38 - 10 x35 * x36 + 84 x35 * x39 + 29 x36 ^2 - 64 x36 * x37
   + 78 x36 * x39 - 30 x37 ^2 + 54 x37 * x38 + 64 x37 * x39 + 28 x38 ^2
   + 68 x38 * x39 - 38 x39 ^2 ] / 2 
Subject To
Bounds
 x0 <= 1
 x1 <= 1
 x2 <= 1
 x3 <= 1
 x4 <= 1
 x5 <= 1
 x6 <= 1
 x7 <= 1
 x8 <= 1
 x9 <= 1
 x10 <= 1
 x11 <= 1
 x12 <= 1
 x13 <= 1
 x14 <= 1
 x15 <= 1
 x16 <= 1
 x17 <= 1
 x18 <= 1
 x19 <= 1
 x20 <= 1
 x21 <= 1
 x22 <= 1
 x23 <= 1
 x24 <= 1
 x25 <= 1
 x26 <= 1
 x27 <= 1
 x28 <= 1
 x29 <= 1
 x30 <= 1
 x31 <= 1
 x32 <= 1
 x33 <= 1
 x34 <= 1
 x35 <= 1
 x36 <= 1
 x37 <= 1
 x38 <= 1
 x39 <= 1
End
